src/fuel/utils/lkh_tsp_solver/resource/single.tsp
NAME : single
TYPE : ATSP
DIMENSION : 5
EDGE_WEIGHT_TYPE : EXPLICIT
EDGE_WEIGHT_FORMAT : FULL_MATRIX
EDGE_WEIGHT_SECTION
0 429 663 277 621 
0 0 334 334 267 
0 334 0 559 569 
0 334 559 0 388 
0 267 569 388 0 
EOF